
  22   10
  10   10   10   10   10   10   10   10   10   10

   0   0   0   0   0   0   0   0   0   0   0   2 2 7 
   9   0   0  10   0   0   0   0   0   0   0   1 3 
   6   0   0   0   0   0   0   0   0  10   0   1 4 
   9   0   0   0   0   0   0  10   0   0   0   1 5 
   1  10   0   0   0   0   0   0   0   0   0   1 6 
   6   0   0  10   0   0   0   0   0   0   0   1 8 
  10   0   0  10   0   0   0   0   0   0   0   1 8 
  10   0   0   0  10   0   0   0   0   0   0   1 9 
   3   0   0   0   0  10   0   0   0   0   0   1 10 
   5   0   0   0  10   0   0   0   0   0   0   1 11 
   9   0  10   0   0   0   0   0   0   0   0   1 12 
   2   0  10   0   0   0   0   0   0   0   0   1 13 
   6   0   0   0   0   0  10   0   0   0   0   1 14 
   8   0   0   0  10   0   0   0   0   0   0   1 15 
   1   0   0   0   0   0   0  10   0   0   0   1 16 
   4   0   0   0   0  10   0   0   0   0   0   1 17 
   4   0   0   0  10   0   0   0   0   0   0   1 18 
  10   0   0   0   0   0   0  10   0   0   0   2 21 19 
   7   0   0   0   0   0   0   0   0  10   0   1 20 
   7  10   0   0   0   0   0   0   0   0   0   1 22
   4   0   0  10   0   0   0   0   0   0   0   1 22
   0   0   0   0   0   0   0   0   0   0   0   0 
